10
8
0 49 66 38 50 22 9 56
12
0 73 53 39 31 59 20 75 57 26 35 65
8
0 40 10 14 28 48 8 41
10
0 13 77 74 29 5 12 6 61 25
7
0 42 67 58 32 4 33
10
0 36 70 76 72 45 54 55 15 64
8
0 21 62 23 44 78 43 47
9
0 1 63 11 34 24 2 16 46
9
0 51 3 60 17 27 30 37 19
8
0 7 71 52 79 18 68 69
